21 67 181 127 179 51 112 0 86 136 19 57 107 45 50 134 166 75 113 145 117 190 199 37 170 133 151 24 109 18 29 5 194 175 183 35 42 69 80 85 115 97 1 120 191 23 74 106 48 152 130 192 83 118 138 131 88 78 184 172 105 178 103 114 40 164 79 84 158 55 177 140 137 63 198 128 4 125 3 73 81 155 144 121 65 34 58 94 77 126 90 196 153 82 119 146 20 17 156 159 143 168 135 122 147 163 98 10 16 124 150 71 22 197 92 161 28 59 141 15 2 89 171 123 157 6 162 27 104 11 39 91 100 64 66 60 148 43 167 189 101 52 193 102 14 186 53 116 38 111 72 195 36 46 70 54 180 132 139 8 61 25 56 31 174 87 68 173 188 108 49 176 169 12 30 33 47 76 13 149 160 44 142 185 26 95 129 154 182 32 165 110 41 99 96 7 93 62 187 9 

